  9	62
 20
  0	  4	 53	 42	 40	104	 66	 60	102	115	122	 23	 44	 85	 29	106	 54	 91	116	125	
 16
  0	  8	  2	 70	 64	 50	 15	 62	 38	124	 77	100	112	 20	 82	125	
 14
  0	 37	 99	 25	 87	 56	  7	 18	 27	 69	 80	 89	118	125	
 26
  0	 41	 51	103	 30	 14	 76	 58	113	  5	 39	 55	 67	120	 92	 17	 13	117	 11	101	 73	 75	 52	114	 79	125	
 12
  0	 22	 48	 26	110	 84	  3	 88	 24	 65	 86	125	
 10
  0	 47	109	 33	 32	 95	  6	 94	 68	125	
 14
  0	 31	 61	 93	  9	 12	 71	123	 74	 19	 43	105	 81	125	
 14
  0	 16	 59	121	 78	 28	 10	 34	 72	 21	 96	 90	 83	125	
 16
  0	 35	 46	 45	 97	 36	108	 98	 49	107	  1	111	 57	119	 63	125	
